c "896942.clq"
p edge 200 784
e 1 5
e 1 6
e 1 7
e 1 8
e 1 10
e 1 13
e 1 14
e 1 15
e 1 16
e 1 17
e 1 18
e 1 21
e 1 24
e 1 28
e 1 33
e 1 46
e 1 55
e 1 57
e 1 68
e 1 72
e 1 85
e 1 100
e 1 102
e 1 109
e 1 115
e 1 129
e 1 130
e 1 133
e 1 144
e 1 169
e 1 180
e 1 189
e 2 5
e 2 7
e 2 11
e 2 15
e 2 20
e 2 21
e 2 29
e 2 59
e 2 61
e 2 73
e 2 76
e 2 78
e 2 94
e 2 98
e 2 124
e 3 5
e 3 6
e 3 7
e 3 12
e 3 21
e 3 22
e 3 68
e 3 69
e 3 103
e 3 130
e 3 148
e 3 200
e 4 5
e 4 6
e 4 198
e 5 6
e 5 7
e 5 8
e 5 9
e 5 10
e 5 11
e 5 12
e 5 13
e 5 15
e 5 16
e 5 17
e 5 18
e 5 20
e 5 21
e 5 23
e 5 31
e 5 32
e 5 34
e 5 35
e 5 37
e 5 38
e 5 41
e 5 42
e 5 43
e 5 44
e 5 45
e 5 46
e 5 55
e 5 56
e 5 66
e 5 70
e 5 73
e 5 84
e 5 86
e 5 99
e 5 101
e 5 106
e 5 110
e 5 112
e 5 113
e 5 120
e 5 123
e 5 136
e 5 137
e 5 138
e 5 146
e 5 154
e 5 156
e 5 170
e 5 173
e 5 182
e 5 191
e 5 193
e 5 197
e 6 8
e 6 9
e 6 11
e 6 13
e 6 14
e 6 25
e 6 30
e 6 31
e 6 35
e 6 36
e 6 37
e 6 40
e 6 49
e 6 51
e 6 52
e 6 57
e 6 64
e 6 65
e 6 78
e 6 80
e 6 82
e 6 84
e 6 91
e 6 95
e 6 98
e 6 110
e 6 114
e 6 153
e 6 157
e 6 179
e 6 184
e 6 185
e 6 195
e 7 8
e 7 9
e 7 12
e 7 14
e 7 16
e 7 19
e 7 24
e 7 26
e 7 27
e 7 28
e 7 33
e 7 40
e 7 51
e 7 56
e 7 63
e 7 67
e 7 71
e 7 76
e 7 107
e 7 111
e 7 112
e 7 122
e 7 131
e 7 135
e 7 146
e 7 147
e 7 169
e 7 185
e 7 188
e 7 189
e 7 192
e 7 196
e 7 197
e 7 198
e 7 200
e 8 9
e 8 10
e 8 12
e 8 13
e 8 15
e 8 17
e 8 23
e 8 25
e 8 26
e 8 32
e 8 35
e 8 38
e 8 42
e 8 48
e 8 58
e 8 59
e 8 64
e 8 70
e 8 82
e 8 103
e 8 109
e 8 113
e 8 115
e 8 126
e 8 130
e 8 172
e 8 188
e 8 194
e 9 10
e 9 11
e 9 24
e 9 30
e 9 43
e 9 63
e 9 91
e 9 107
e 9 121
e 9 187
e 9 194
e 10 14
e 10 25
e 10 33
e 10 36
e 10 44
e 10 49
e 10 53
e 10 61
e 10 77
e 10 78
e 10 97
e 10 98
e 10 127
e 10 131
e 10 140
e 10 142
e 10 150
e 10 160
e 10 162
e 10 165
e 10 170
e 10 171
e 10 174
e 10 183
e 11 18
e 11 19
e 11 38
e 11 41
e 11 46
e 11 51
e 11 58
e 11 68
e 11 79
e 11 80
e 11 88
e 11 90
e 11 92
e 11 101
e 11 104
e 11 107
e 11 125
e 11 155
e 11 162
e 11 164
e 11 166
e 11 174
e 12 16
e 12 18
e 12 23
e 12 26
e 12 29
e 12 34
e 12 36
e 12 40
e 12 43
e 12 48
e 12 54
e 12 60
e 12 70
e 12 72
e 12 88
e 12 96
e 12 118
e 12 119
e 12 148
e 12 155
e 12 160
e 12 173
e 13 17
e 13 20
e 13 30
e 13 32
e 13 41
e 13 62
e 13 82
e 13 134
e 13 157
e 13 190
e 13 199
e 14 22
e 14 29
e 14 34
e 14 50
e 14 101
e 14 105
e 14 123
e 14 125
e 14 149
e 14 180
e 14 181
e 14 195
e 14 199
e 15 53
e 15 64
e 15 80
e 15 93
e 15 100
e 15 104
e 15 133
e 15 145
e 15 154
e 15 166
e 15 187
e 16 19
e 16 29
e 16 39
e 16 44
e 16 50
e 16 56
e 16 70
e 16 75
e 16 97
e 16 103
e 16 122
e 16 160
e 16 178
e 17 19
e 17 20
e 17 22
e 17 25
e 17 26
e 17 27
e 17 66
e 17 69
e 17 72
e 17 74
e 17 90
e 17 97
e 17 106
e 17 123
e 17 134
e 18 22
e 18 63
e 18 69
e 18 72
e 18 101
e 18 125
e 19 23
e 19 27
e 19 30
e 19 49
e 19 81
e 19 94
e 19 129
e 19 130
e 19 140
e 19 152
e 19 153
e 19 158
e 19 163
e 19 189
e 20 39
e 20 48
e 20 50
e 20 60
e 20 67
e 20 83
e 20 84
e 20 87
e 20 136
e 21 31
e 21 37
e 21 45
e 21 85
e 21 92
e 21 118
e 21 157
e 22 28
e 22 34
e 22 41
e 22 42
e 22 64
e 22 96
e 22 177
e 22 184
e 23 24
e 23 27
e 23 28
e 23 42
e 23 140
e 23 144
e 23 150
e 23 152
e 24 55
e 24 74
e 24 86
e 24 122
e 24 126
e 24 132
e 24 175
e 24 193
e 25 52
e 25 137
e 25 151
e 25 168
e 26 32
e 26 33
e 26 36
e 26 38
e 26 48
e 26 52
e 26 55
e 26 75
e 26 105
e 26 167
e 26 175
e 26 195
e 27 47
e 27 51
e 27 52
e 27 80
e 27 85
e 27 95
e 27 132
e 27 150
e 27 165
e 28 31
e 28 35
e 28 53
e 28 61
e 28 62
e 28 65
e 28 67
e 28 68
e 28 69
e 28 71
e 28 87
e 28 88
e 28 89
e 28 134
e 28 156
e 28 169
e 28 173
e 28 174
e 29 40
e 29 112
e 29 116
e 29 129
e 30 44
e 30 58
e 30 65
e 30 75
e 30 89
e 30 95
e 30 145
e 30 166
e 30 181
e 30 187
e 31 43
e 31 50
e 31 127
e 31 141
e 31 144
e 32 39
e 32 45
e 32 73
e 32 83
e 33 46
e 33 47
e 33 53
e 33 111
e 33 123
e 33 127
e 33 159
e 33 182
e 33 197
e 34 47
e 34 56
e 34 77
e 34 112
e 34 153
e 34 174
e 35 37
e 35 45
e 35 74
e 35 97
e 35 116
e 35 143
e 36 75
e 36 176
e 37 86
e 38 39
e 38 47
e 38 67
e 38 166
e 39 54
e 39 59
e 39 60
e 39 79
e 39 92
e 39 135
e 39 155
e 39 191
e 40 54
e 40 57
e 40 73
e 40 88
e 40 102
e 40 107
e 40 122
e 40 124
e 40 131
e 40 199
e 41 57
e 41 99
e 41 137
e 41 138
e 41 159
e 41 168
e 41 170
e 42 49
e 42 87
e 42 117
e 43 120
e 43 127
e 43 181
e 43 190
e 44 111
e 44 120
e 44 163
e 45 87
e 45 151
e 45 158
e 46 66
e 46 119
e 46 124
e 46 128
e 47 83
e 47 98
e 47 185
e 49 85
e 49 198
e 50 54
e 50 60
e 50 93
e 50 100
e 50 108
e 50 157
e 50 163
e 50 186
e 51 62
e 51 114
e 51 186
e 51 192
e 52 59
e 52 66
e 52 77
e 52 93
e 52 102
e 52 104
e 52 109
e 52 113
e 52 128
e 52 172
e 53 82
e 53 147
e 54 162
e 56 58
e 56 81
e 56 194
e 56 196
e 57 90
e 57 119
e 57 176
e 57 183
e 58 89
e 58 115
e 58 179
e 59 61
e 59 62
e 59 139
e 59 184
e 60 77
e 60 147
e 60 193
e 61 63
e 61 79
e 61 117
e 61 168
e 62 71
e 62 76
e 62 106
e 62 116
e 62 145
e 62 146
e 62 152
e 63 65
e 63 74
e 63 79
e 63 100
e 63 103
e 63 114
e 63 196
e 63 200
e 64 71
e 64 92
e 64 135
e 64 139
e 64 145
e 64 173
e 65 91
e 65 153
e 65 156
e 65 171
e 66 134
e 67 81
e 68 96
e 68 99
e 68 104
e 68 114
e 68 161
e 68 168
e 68 188
e 69 115
e 69 119
e 69 191
e 70 81
e 70 102
e 70 165
e 71 86
e 71 105
e 71 142
e 72 128
e 73 161
e 74 76
e 74 91
e 74 99
e 74 106
e 74 132
e 74 133
e 74 136
e 74 138
e 75 178
e 76 78
e 76 83
e 76 108
e 78 118
e 78 120
e 78 177
e 78 200
e 79 110
e 79 139
e 79 180
e 80 155
e 81 110
e 82 162
e 83 84
e 83 94
e 83 141
e 83 159
e 84 95
e 84 96
e 84 117
e 84 139
e 85 93
e 85 128
e 85 161
e 86 89
e 86 90
e 86 108
e 86 169
e 89 94
e 89 116
e 89 149
e 89 161
e 89 186
e 90 194
e 91 190
e 92 142
e 94 148
e 94 175
e 97 117
e 97 121
e 99 179
e 100 109
e 100 159
e 100 178
e 101 121
e 101 156
e 101 163
e 101 171
e 101 195
e 102 108
e 102 118
e 102 143
e 102 183
e 103 105
e 103 121
e 103 185
e 104 147
e 105 111
e 105 113
e 105 136
e 105 138
e 105 142
e 105 158
e 105 196
e 106 135
e 108 175
e 109 143
e 110 132
e 110 140
e 110 177
e 113 172
e 114 150
e 114 151
e 114 189
e 115 126
e 115 154
e 115 160
e 115 179
e 115 188
e 116 167
e 118 124
e 118 133
e 120 143
e 120 170
e 120 198
e 121 129
e 121 167
e 122 125
e 123 164
e 123 184
e 124 126
e 124 141
e 124 197
e 126 137
e 127 165
e 128 131
e 128 167
e 128 176
e 130 148
e 131 182
e 131 193
e 132 191
e 133 146
e 135 141
e 135 151
e 137 172
e 137 187
e 141 144
e 141 149
e 141 154
e 142 149
e 142 177
e 143 164
e 144 182
e 149 158
e 149 199
e 150 176
e 150 180
e 150 181
e 151 152
e 151 192
e 157 171
e 162 183
e 163 164
e 164 178
e 174 186
e 180 190
e 185 192
